c Reduced graph for p36_0 generated by Cyril Grelier
p edge 101 798
e 1 2
e 1 3
e 1 5
e 1 7
e 1 9
e 1 11
e 1 13
e 1 15
e 1 17
e 1 18
e 1 22
e 1 26
e 1 30
e 1 31
e 1 32
e 1 33
e 1 46
e 1 52
e 1 66
e 1 90
e 2 4
e 2 6
e 2 8
e 2 10
e 2 12
e 2 14
e 2 16
e 2 17
e 2 18
e 2 23
e 2 27
e 2 30
e 2 31
e 2 32
e 2 34
e 2 47
e 2 52
e 2 66
e 2 90
e 3 4
e 3 5
e 3 7
e 3 9
e 3 11
e 3 13
e 3 15
e 3 19
e 3 22
e 3 26
e 3 33
e 3 38
e 3 39
e 3 40
e 3 46
e 3 59
e 3 71
e 3 72
e 3 92
e 4 6
e 4 8
e 4 10
e 4 12
e 4 14
e 4 16
e 4 19
e 4 23
e 4 27
e 4 34
e 4 38
e 4 39
e 4 40
e 4 47
e 4 59
e 4 71
e 4 72
e 4 92
e 5 6
e 5 7
e 5 9
e 5 11
e 5 13
e 5 15
e 5 20
e 5 21
e 5 22
e 5 26
e 5 33
e 5 41
e 5 42
e 5 46
e 5 73
e 5 74
e 5 93
e 5 99
e 6 8
e 6 10
e 6 12
e 6 14
e 6 16
e 6 20
e 6 21
e 6 23
e 6 27
e 6 34
e 6 41
e 6 42
e 6 47
e 6 73
e 6 74
e 6 93
e 6 99
e 7 8
e 7 9
e 7 11
e 7 13
e 7 15
e 7 22
e 7 24
e 7 25
e 7 26
e 7 33
e 7 43
e 7 44
e 7 45
e 7 46
e 7 62
e 7 77
e 8 10
e 8 12
e 8 14
e 8 16
e 8 23
e 8 24
e 8 25
e 8 27
e 8 34
e 8 43
e 8 44
e 8 45
e 8 47
e 8 62
e 8 77
e 9 10
e 9 11
e 9 13
e 9 15
e 9 22
e 9 26
e 9 28
e 9 29
e 9 33
e 9 46
e 9 48
e 9 49
e 9 81
e 9 82
e 9 95
e 10 12
e 10 14
e 10 16
e 10 23
e 10 27
e 10 28
e 10 29
e 10 34
e 10 47
e 10 48
e 10 49
e 10 81
e 10 82
e 10 95
e 11 12
e 11 13
e 11 15
e 11 22
e 11 26
e 11 33
e 11 35
e 11 36
e 11 46
e 11 53
e 11 54
e 11 55
e 11 69
e 11 100
e 12 14
e 12 16
e 12 23
e 12 27
e 12 34
e 12 35
e 12 36
e 12 47
e 12 53
e 12 54
e 12 55
e 12 69
e 12 100
e 13 14
e 13 15
e 13 22
e 13 26
e 13 33
e 13 37
e 13 46
e 13 56
e 13 57
e 13 58
e 13 70
e 13 84
e 13 85
e 14 16
e 14 23
e 14 27
e 14 34
e 14 37
e 14 47
e 14 56
e 14 57
e 14 58
e 14 70
e 14 84
e 14 85
e 15 16
e 15 22
e 15 26
e 15 33
e 15 46
e 15 50
e 15 51
e 15 64
e 15 65
e 15 89
e 15 98
e 16 23
e 16 27
e 16 34
e 16 47
e 16 50
e 16 51
e 16 64
e 16 65
e 16 89
e 16 98
e 17 18
e 17 19
e 17 20
e 17 24
e 17 28
e 17 30
e 17 31
e 17 32
e 17 35
e 17 50
e 17 52
e 17 60
e 17 66
e 17 67
e 17 80
e 17 90
e 18 21
e 18 25
e 18 29
e 18 30
e 18 31
e 18 32
e 18 36
e 18 37
e 18 51
e 18 52
e 18 61
e 18 63
e 18 66
e 18 68
e 18 90
e 19 20
e 19 24
e 19 28
e 19 35
e 19 38
e 19 39
e 19 40
e 19 50
e 19 59
e 19 60
e 19 67
e 19 71
e 19 72
e 19 80
e 19 92
e 20 21
e 20 24
e 20 28
e 20 35
e 20 41
e 20 42
e 20 50
e 20 60
e 20 67
e 20 73
e 20 74
e 20 80
e 20 93
e 20 99
e 21 25
e 21 29
e 21 36
e 21 37
e 21 41
e 21 42
e 21 51
e 21 61
e 21 63
e 21 68
e 21 73
e 21 74
e 21 93
e 21 99
e 22 23
e 22 26
e 22 33
e 22 46
e 22 60
e 22 61
e 22 75
e 22 76
e 22 86
e 23 27
e 23 34
e 23 47
e 23 60
e 23 61
e 23 75
e 23 76
e 23 86
e 24 25
e 24 28
e 24 35
e 24 43
e 24 44
e 24 45
e 24 50
e 24 60
e 24 62
e 24 67
e 24 77
e 24 80
e 25 29
e 25 36
e 25 37
e 25 43
e 25 44
e 25 45
e 25 51
e 25 61
e 25 62
e 25 63
e 25 68
e 25 77
e 26 27
e 26 33
e 26 46
e 26 63
e 26 78
e 26 79
e 26 87
e 26 94
e 27 34
e 27 47
e 27 63
e 27 78
e 27 79
e 27 87
e 27 94
e 28 29
e 28 35
e 28 48
e 28 49
e 28 50
e 28 60
e 28 67
e 28 80
e 28 81
e 28 82
e 28 95
e 29 36
e 29 37
e 29 48
e 29 49
e 29 51
e 29 61
e 29 63
e 29 68
e 29 81
e 29 82
e 29 95
e 30 31
e 30 32
e 30 38
e 30 41
e 30 43
e 30 52
e 30 53
e 30 56
e 30 64
e 30 66
e 30 78
e 30 83
e 30 90
e 31 32
e 31 39
e 31 44
e 31 48
e 31 52
e 31 54
e 31 57
e 31 65
e 31 66
e 31 75
e 31 88
e 31 90
e 32 40
e 32 42
e 32 45
e 32 49
e 32 52
e 32 55
e 32 58
e 32 66
e 32 76
e 32 79
e 32 90
e 33 34
e 33 46
e 33 67
e 33 68
e 33 83
e 33 91
e 33 101
e 34 47
e 34 67
e 34 68
e 34 83
e 34 91
e 34 101
e 35 36
e 35 50
e 35 53
e 35 54
e 35 55
e 35 60
e 35 67
e 35 69
e 35 80
e 35 100
e 36 37
e 36 51
e 36 53
e 36 54
e 36 55
e 36 61
e 36 63
e 36 68
e 36 69
e 36 100
e 37 51
e 37 56
e 37 57
e 37 58
e 37 61
e 37 63
e 37 68
e 37 70
e 37 84
e 37 85
e 38 39
e 38 40
e 38 41
e 38 43
e 38 53
e 38 56
e 38 59
e 38 64
e 38 71
e 38 72
e 38 78
e 38 83
e 38 92
e 39 40
e 39 44
e 39 48
e 39 54
e 39 57
e 39 59
e 39 65
e 39 71
e 39 72
e 39 75
e 39 88
e 39 92
e 40 42
e 40 45
e 40 49
e 40 55
e 40 58
e 40 59
e 40 71
e 40 72
e 40 76
e 40 79
e 40 92
e 41 42
e 41 43
e 41 53
e 41 56
e 41 64
e 41 73
e 41 74
e 41 78
e 41 83
e 41 93
e 41 99
e 42 45
e 42 49
e 42 55
e 42 58
e 42 73
e 42 74
e 42 76
e 42 79
e 42 93
e 42 99
e 43 44
e 43 45
e 43 53
e 43 56
e 43 62
e 43 64
e 43 77
e 43 78
e 43 83
e 44 45
e 44 48
e 44 54
e 44 57
e 44 62
e 44 65
e 44 75
e 44 77
e 44 88
e 45 49
e 45 55
e 45 58
e 45 62
e 45 76
e 45 77
e 45 79
e 46 47
e 46 80
e 46 88
e 46 96
e 46 97
e 47 80
e 47 88
e 47 96
e 47 97
e 48 49
e 48 54
e 48 57
e 48 65
e 48 75
e 48 81
e 48 82
e 48 88
e 48 95
e 49 55
e 49 58
e 49 76
e 49 79
e 49 81
e 49 82
e 49 95
e 50 51
e 50 60
e 50 64
e 50 65
e 50 67
e 50 80
e 50 89
e 50 98
e 51 61
e 51 63
e 51 64
e 51 65
e 51 68
e 51 89
e 51 98
e 52 59
e 52 62
e 52 66
e 52 69
e 52 70
e 52 86
e 52 87
e 52 90
e 52 91
e 53 54
e 53 55
e 53 56
e 53 64
e 53 69
e 53 78
e 53 83
e 53 100
e 54 55
e 54 57
e 54 65
e 54 69
e 54 75
e 54 88
e 54 100
e 55 58
e 55 69
e 55 76
e 55 79
e 55 100
e 56 57
e 56 58
e 56 64
e 56 70
e 56 78
e 56 83
e 56 84
e 56 85
e 57 58
e 57 65
e 57 70
e 57 75
e 57 84
e 57 85
e 57 88
e 58 70
e 58 76
e 58 79
e 58 84
e 58 85
e 59 62
e 59 69
e 59 70
e 59 71
e 59 72
e 59 86
e 59 87
e 59 91
e 59 92
e 60 61
e 60 67
e 60 75
e 60 76
e 60 80
e 60 86
e 61 63
e 61 68
e 61 75
e 61 76
e 61 86
e 62 69
e 62 70
e 62 77
e 62 86
e 62 87
e 62 91
e 63 68
e 63 78
e 63 79
e 63 87
e 63 94
e 64 65
e 64 78
e 64 83
e 64 89
e 64 98
e 65 75
e 65 88
e 65 89
e 65 98
e 66 72
e 66 74
e 66 77
e 66 82
e 66 85
e 66 90
e 66 97
e 67 68
e 67 80
e 67 83
e 67 91
e 67 101
e 68 83
e 68 91
e 68 101
e 69 70
e 69 86
e 69 87
e 69 91
e 69 100
e 70 84
e 70 85
e 70 86
e 70 87
e 70 91
e 71 72
e 71 73
e 71 81
e 71 84
e 71 89
e 71 92
e 71 94
e 71 96
e 72 74
e 72 77
e 72 82
e 72 85
e 72 92
e 72 97
e 73 74
e 73 81
e 73 84
e 73 89
e 73 93
e 73 94
e 73 96
e 73 99
e 74 77
e 74 82
e 74 85
e 74 93
e 74 97
e 74 99
e 75 76
e 75 86
e 75 88
e 76 79
e 76 86
e 77 82
e 77 85
e 77 97
e 78 79
e 78 83
e 78 87
e 78 94
e 79 87
e 79 94
e 80 88
e 80 96
e 80 97
e 81 82
e 81 84
e 81 89
e 81 94
e 81 95
e 81 96
e 82 85
e 82 95
e 82 97
e 83 91
e 83 101
e 84 85
e 84 89
e 84 94
e 84 96
e 85 97
e 86 87
e 86 91
e 87 91
e 87 94
e 88 96
e 88 97
e 89 94
e 89 96
e 89 98
e 90 92
e 90 93
e 90 95
e 90 98
e 91 101
e 92 93
e 92 95
e 92 98
e 93 95
e 93 98
e 93 99
e 94 96
e 95 98
e 96 97
e 99 100
e 99 101
e 100 101
